c This is a CNF SAT formula in the DIMACS CNF format,
c produced with the bc2cnf translator by Tommi Junttila;
c see http://users.ics.aalto.fi/tjunttil/circuits/index.html
c phi_Gamma <-> 1
c phi_T_feature_det <-> 1
c phi_T_transitions <-> 1
c phi_T_transitions_consistency <-> 1
c phi_T <-> 1
c phi_sim_leaves <-> 1
c phi_sim_transition <-> 1
c phi_sim <-> 1
c FORMULA <-> 1
c pi_1_18 <-> 2
c pi_0_18 <-> 15
c pi_1_16 <-> 34
c pi_1_17 <-> 34
c pi_0_16 <-> 43
c pi_0_17 <-> 43
c pi_1_15 <-> 57
c pi_0_15 <-> 68
c pi_1_14 <-> 83
c pi_0_14 <-> 90
c pi_1_13 <-> 104
c pi_0_13 <-> 106
c pi_1_12 <-> 119
c pi_0_12 <-> 121
c pi_1_11 <-> 134
c pi_0_11 <-> 138
c pi_1_10 <-> 151
c pi_0_10 <-> 154
c pi_1_9 <-> 170
c pi_0_9 <-> 176
c pi_1_8 <-> 192
c pi_0_8 <-> 198
c pi_1_7 <-> 218
c pi_0_7 <-> 220
c pi_1_6 <-> 233
c pi_0_6 <-> 235
c pi_1_4 <-> 248
c pi_1_5 <-> 248
c pi_0_4 <-> 250
c pi_0_5 <-> 250
c pi_1_3 <-> 263
c pi_0_3 <-> 264
c pi_1_2 <-> 280
c pi_0_2 <-> 281
c pi_1_1 <-> 294
c pi_0_1 <-> 295
c pi_1_0 <-> 311
c pi_0_0 <-> 312
c alp_approved_1_0 <-> 325
c alp_approved_1_1 <-> 325
c alp_approved_1_2 <-> 325
c alp_approved_0_3 <-> 325
c alp_approved_1_4 <-> 325
c alp_approved_1_5 <-> 325
c alp_approved_0_6 <-> 325
c alp_approved_0_7 <-> 325
c alp_approved_1_8 <-> 325
c alp_approved_1_9 <-> 325
c alp_approved_0_10 <-> 325
c alp_approved_0_11 <-> 325
c alp_approved_1_12 <-> 325
c alp_approved_1_13 <-> 325
c alp_approved_1_14 <-> 325
c alp_approved_1_15 <-> 325
c alp_approved_0_16 <-> 325
c alp_approved_0_17 <-> 325
c alp_approved_0_18 <-> 325
c alp_approved_1_3 <-> 326
c alp_approved_1_6 <-> 326
c alp_approved_1_7 <-> 326
c alp_approved_1_10 <-> 326
c alp_approved_1_11 <-> 326
c alp_approved_1_16 <-> 326
c alp_approved_1_17 <-> 326
c alp_approved_1_18 <-> 326
c approved_P100 <-> 326
c alp_approved_0_0 <-> 327
c alp_approved_0_1 <-> 327
c alp_approved_0_2 <-> 327
c alp_approved_0_4 <-> 327
c alp_approved_0_5 <-> 327
c alp_approved_0_8 <-> 327
c alp_approved_0_9 <-> 327
c alp_approved_0_12 <-> 327
c alp_approved_0_13 <-> 327
c alp_approved_0_14 <-> 327
c alp_approved_0_15 <-> 327
c approved_P0 <-> 327
c tau_1_3_approved_1 <-> 364
c tau_1_3_approved_0 <-> 365
c tau_1_2_approved_1 <-> 366
c tau_1_2_approved_0 <-> 367
c tau_1_1_approved_1 <-> 368
c tau_1_1_approved_0 <-> 369
c tau_1_0_approved_1 <-> 370
c tau_1_0_approved_0 <-> 371
c tau_0_3_approved_1 <-> 409
c tau_0_3_approved_0 <-> 410
c tau_0_3_1 <-> 411
c tau_0_2_approved_1 <-> 412
c tau_0_2_approved_0 <-> 413
c tau_0_2_1 <-> 414
c tau_0_1_approved_1 <-> 415
c tau_0_1_approved_0 <-> 416
c tau_0_1_1 <-> 417
c tau_0_0_approved_1 <-> 418
c tau_0_0_approved_0 <-> 419
c tau_0_0_1 <-> 420
c lam_1_credit_score <-> 434
c lam_1_dependents <-> 436
c lam_1_monthly_income <-> 438
c lam_1_age <-> 439
c lam_0_credit_score <-> 453
c lam_0_dependents <-> 455
c lam_0_monthly_income <-> 457
c lam_0_age <-> 458
p wcnf 458 1332 20  
20 1 0
20 2 -3 0
20 2 -6 0
20 -2 6 3 0
20 -3 4 0
20 -3 434 0
20 3 -434 -4 0
20 -4 5 0
20 -4 -369 0
20 4 369 -5 0
20 5 368 0
20 5 -326 0
20 -5 326 -368 0
20 6 -7 0
20 6 -8 0
20 -6 8 7 0
20 -7 10 0
20 -7 436 0
20 7 -436 -10 0
20 8 -9 0
20 8 -12 0
20 -8 12 9 0
20 -9 10 0
20 -9 438 0
20 9 -438 -10 0
20 -10 11 0
20 -10 -371 0
20 10 371 -11 0
20 11 370 0
20 11 -326 0
20 -11 326 -370 0
20 -12 13 0
20 -12 439 0
20 12 -439 -13 0
20 -13 14 0
20 -13 -365 0
20 13 365 -14 0
20 14 364 0
20 14 -326 0
20 -14 326 -364 0
20 15 -16 0
20 15 -21 0
20 -15 21 16 0
1 15 0
20 -16 17 0
20 -16 453 0
20 16 -453 -17 0
20 -17 18 0
20 -17 19 0
20 17 -19 -18 0
20 18 415 0
20 18 -326 0
20 -18 326 -415 0
20 -19 -416 0
20 -19 20 0
20 19 -20 416 0
20 20 -2 0
20 20 417 0
20 -20 -417 2 0
20 21 -22 0
20 21 -23 0
20 -21 23 22 0
20 -22 25 0
20 -22 455 0
20 22 -455 -25 0
20 23 -24 0
20 23 -29 0
20 -23 29 24 0
20 -24 25 0
20 -24 457 0
20 24 -457 -25 0
20 -25 26 0
20 -25 27 0
20 25 -27 -26 0
20 26 418 0
20 26 -326 0
20 -26 326 -418 0
20 -27 -419 0
20 -27 28 0
20 27 -28 419 0
20 28 -2 0
20 28 420 0
20 -28 -420 2 0
20 -29 30 0
20 -29 458 0
20 29 -458 -30 0
20 -30 31 0
20 -30 32 0
20 30 -32 -31 0
20 31 409 0
20 31 -326 0
20 -31 326 -409 0
20 -32 -410 0
20 -32 33 0
20 32 -33 410 0
20 33 -2 0
20 33 411 0
20 -33 -411 2 0
20 34 -35 0
20 34 -38 0
20 -34 38 35 0
20 -35 36 0
20 -35 434 0
20 35 -434 -36 0
20 -36 37 0
20 -36 -367 0
20 36 367 -37 0
20 37 366 0
20 37 -326 0
20 -37 326 -366 0
20 38 -39 0
20 38 -40 0
20 -38 40 39 0
20 -39 4 0
20 -39 436 0
20 39 -436 -4 0
20 40 -41 0
20 40 -42 0
20 -40 42 41 0
20 -41 4 0
20 -41 438 0
20 41 -438 -4 0
20 -42 4 0
20 -42 439 0
20 42 -439 -4 0
20 43 -44 0
20 43 -49 0
20 -43 49 44 0
1 43 0
20 -44 45 0
20 -44 453 0
20 44 -453 -45 0
20 -45 46 0
20 -45 47 0
20 45 -47 -46 0
20 46 412 0
20 46 -326 0
20 -46 326 -412 0
20 -47 -413 0
20 -47 48 0
20 47 -48 413 0
20 48 -34 0
20 48 414 0
20 -48 -414 34 0
20 49 -50 0
20 49 -51 0
20 -49 51 50 0
20 -50 54 0
20 -50 455 0
20 50 -455 -54 0
20 51 -52 0
20 51 -53 0
20 -51 53 52 0
20 -52 54 0
20 -52 457 0
20 52 -457 -54 0
20 -53 54 0
20 -53 458 0
20 53 -458 -54 0
20 -54 18 0
20 -54 55 0
20 54 -55 -18 0
20 -55 -416 0
20 -55 56 0
20 55 -56 416 0
20 56 417 0
20 56 -34 0
20 -56 34 -417 0
20 57 -58 0
20 57 -59 0
20 -57 59 58 0
20 -58 63 0
20 -58 434 0
20 58 -434 -63 0
20 59 -60 0
20 59 -61 0
20 -59 61 60 0
20 -60 66 0
20 -60 436 0
20 60 -436 -66 0
20 61 -62 0
20 61 -65 0
20 -61 65 62 0
20 -62 63 0
20 -62 438 0
20 62 -438 -63 0
20 -63 -368 0
20 -63 64 0
20 63 -64 368 0
20 64 369 0
20 64 -327 0
20 -64 327 -369 0
20 -65 66 0
20 -65 439 0
20 65 -439 -66 0
20 -66 -370 0
20 -66 67 0
20 66 -67 370 0
20 67 371 0
20 67 -327 0
20 -67 327 -371 0
20 68 -69 0
20 68 -70 0
20 -68 70 69 0
1 68 0
20 -69 74 0
20 -69 453 0
20 69 -453 -74 0
20 70 -71 0
20 70 -72 0
20 -70 72 71 0
20 -71 79 0
20 -71 455 0
20 71 -455 -79 0
20 72 -73 0
20 72 -78 0
20 -72 78 73 0
20 -73 74 0
20 -73 457 0
20 73 -457 -74 0
20 -74 -415 0
20 -74 75 0
20 74 -75 415 0
20 -75 76 0
20 -75 77 0
20 75 -77 -76 0
20 76 416 0
20 76 -327 0
20 -76 327 -416 0
20 77 417 0
20 77 -57 0
20 -77 57 -417 0
20 -78 79 0
20 -78 458 0
20 78 -458 -79 0
20 -79 -418 0
20 -79 80 0
20 79 -80 418 0
20 -80 81 0
20 -80 82 0
20 80 -82 -81 0
20 81 419 0
20 81 -327 0
20 -81 327 -419 0
20 82 420 0
20 82 -57 0
20 -82 57 -420 0
20 83 -58 0
20 83 -84 0
20 -83 84 58 0
20 84 -85 0
20 84 -86 0
20 -84 86 85 0
20 -85 63 0
20 -85 436 0
20 85 -436 -63 0
20 86 -62 0
20 86 -87 0
20 -86 87 62 0
20 -87 88 0
20 -87 439 0
20 87 -439 -88 0
20 -88 -366 0
20 -88 89 0
20 88 -89 366 0
20 89 367 0
20 89 -327 0
20 -89 327 -367 0
20 90 -91 0
20 90 -92 0
20 -90 92 91 0
1 90 0
20 -91 96 0
20 -91 453 0
20 91 -453 -96 0
20 92 -93 0
20 92 -94 0
20 -92 94 93 0
20 -93 96 0
20 -93 455 0
20 93 -455 -96 0
20 94 -95 0
20 94 -99 0
20 -94 99 95 0
20 -95 96 0
20 -95 457 0
20 95 -457 -96 0
20 -96 -415 0
20 -96 97 0
20 96 -97 415 0
20 -97 76 0
20 -97 98 0
20 97 -98 -76 0
20 98 417 0
20 98 -83 0
20 -98 83 -417 0
20 -99 100 0
20 -99 458 0
20 99 -458 -100 0
20 -100 -412 0
20 -100 101 0
20 100 -101 412 0
20 -101 102 0
20 -101 103 0
20 101 -103 -102 0
20 102 413 0
20 102 -327 0
20 -102 327 -413 0
20 103 414 0
20 103 -83 0
20 -103 83 -414 0
20 104 -58 0
20 104 -105 0
20 -104 105 58 0
20 105 -61 0
20 105 -85 0
20 -105 85 61 0
20 106 -107 0
20 106 -108 0
20 -106 108 107 0
1 106 0
20 -107 112 0
20 -107 453 0
20 107 -453 -112 0
20 108 -109 0
20 108 -110 0
20 -108 110 109 0
20 -109 112 0
20 -109 455 0
20 109 -455 -112 0
20 110 -111 0
20 110 -115 0
20 -110 115 111 0
20 -111 112 0
20 -111 457 0
20 111 -457 -112 0
20 -112 -415 0
20 -112 113 0
20 112 -113 415 0
20 -113 76 0
20 -113 114 0
20 113 -114 -76 0
20 114 417 0
20 114 -104 0
20 -114 104 -417 0
20 -115 116 0
20 -115 458 0
20 115 -458 -116 0
20 -116 -418 0
20 -116 117 0
20 116 -117 418 0
20 -117 81 0
20 -117 118 0
20 117 -118 -81 0
20 118 420 0
20 118 -104 0
20 -118 104 -420 0
20 119 -59 0
20 119 -120 0
20 -119 120 59 0
20 -120 66 0
20 -120 434 0
20 120 -434 -66 0
20 121 -122 0
20 121 -123 0
20 -121 123 122 0
1 121 0
20 -122 131 0
20 -122 453 0
20 122 -453 -131 0
20 123 -124 0
20 123 -125 0
20 -123 125 124 0
20 -124 131 0
20 -124 455 0
20 124 -455 -131 0
20 125 -126 0
20 125 -130 0
20 -125 130 126 0
20 -126 127 0
20 -126 457 0
20 126 -457 -127 0
20 -127 -415 0
20 -127 128 0
20 127 -128 415 0
20 -128 76 0
20 -128 129 0
20 128 -129 -76 0
20 129 417 0
20 129 -119 0
20 -129 119 -417 0
20 -130 131 0
20 -130 458 0
20 130 -458 -131 0
20 -131 -418 0
20 -131 132 0
20 131 -132 418 0
20 -132 81 0
20 -132 133 0
20 132 -133 -81 0
20 133 420 0
20 133 -119 0
20 -133 119 -420 0
20 134 -35 0
20 134 -135 0
20 -134 135 35 0
20 135 -39 0
20 135 -136 0
20 -135 136 39 0
20 136 -41 0
20 136 -137 0
20 -136 137 41 0
20 -137 36 0
20 -137 439 0
20 137 -439 -36 0
20 138 -139 0
20 138 -140 0
20 -138 140 139 0
1 138 0
20 -139 148 0
20 -139 453 0
20 139 -453 -148 0
20 140 -141 0
20 140 -142 0
20 -140 142 141 0
20 -141 144 0
20 -141 455 0
20 141 -455 -144 0
20 142 -143 0
20 142 -147 0
20 -142 147 143 0
20 -143 144 0
20 -143 457 0
20 143 -457 -144 0
20 -144 18 0
20 -144 145 0
20 144 -145 -18 0
20 -145 -416 0
20 -145 146 0
20 145 -146 416 0
20 146 417 0
20 146 -134 0
20 -146 134 -417 0
20 -147 148 0
20 -147 458 0
20 147 -458 -148 0
20 -148 46 0
20 -148 149 0
20 148 -149 -46 0
20 -149 -413 0
20 -149 150 0
20 149 -150 413 0
20 150 414 0
20 150 -134 0
20 -150 134 -414 0
20 151 -35 0
20 151 -152 0
20 -151 152 35 0
20 152 -39 0
20 152 -153 0
20 -152 153 39 0
20 153 -12 0
20 153 -41 0
20 -153 41 12 0
20 154 -155 0
20 154 -159 0
20 -154 159 155 0
1 154 0
20 -155 156 0
20 -155 453 0
20 155 -453 -156 0
20 -156 46 0
20 -156 157 0
20 156 -157 -46 0
20 -157 -413 0
20 -157 158 0
20 157 -158 413 0
20 158 414 0
20 158 -151 0
20 -158 151 -414 0
20 159 -160 0
20 159 -161 0
20 -159 161 160 0
20 -160 163 0
20 -160 455 0
20 160 -455 -163 0
20 161 -162 0
20 161 -166 0
20 -161 166 162 0
20 -162 163 0
20 -162 457 0
20 162 -457 -163 0
20 -163 18 0
20 -163 164 0
20 163 -164 -18 0
20 -164 -416 0
20 -164 165 0
20 164 -165 416 0
20 165 417 0
20 165 -151 0
20 -165 151 -417 0
20 -166 167 0
20 -166 458 0
20 166 -458 -167 0
20 -167 31 0
20 -167 168 0
20 167 -168 -31 0
20 -168 -410 0
20 -168 169 0
20 168 -169 410 0
20 169 411 0
20 169 -151 0
20 -169 151 -411 0
20 170 -171 0
20 170 -172 0
20 -170 172 171 0
20 -171 88 0
20 -171 434 0
20 171 -434 -88 0
20 172 -85 0
20 172 -173 0
20 -172 173 85 0
20 173 -174 0
20 173 -175 0
20 -173 175 174 0
20 -174 66 0
20 -174 438 0
20 174 -438 -66 0
20 -175 63 0
20 -175 439 0
20 175 -439 -63 0
20 176 -177 0
20 176 -181 0
20 -176 181 177 0
1 176 0
20 -177 178 0
20 -177 453 0
20 177 -453 -178 0
20 -178 -412 0
20 -178 179 0
20 178 -179 412 0
20 -179 102 0
20 -179 180 0
20 179 -180 -102 0
20 180 414 0
20 180 -170 0
20 -180 170 -414 0
20 181 -182 0
20 181 -183 0
20 -181 183 182 0
20 -182 189 0
20 -182 455 0
20 182 -455 -189 0
20 183 -184 0
20 183 -188 0
20 -183 188 184 0
20 -184 185 0
20 -184 457 0
20 184 -457 -185 0
20 -185 -418 0
20 -185 186 0
20 185 -186 418 0
20 -186 81 0
20 -186 187 0
20 186 -187 -81 0
20 187 420 0
20 187 -170 0
20 -187 170 -420 0
20 -188 189 0
20 -188 458 0
20 188 -458 -189 0
20 -189 -415 0
20 -189 190 0
20 189 -190 415 0
20 -190 76 0
20 -190 191 0
20 190 -191 -76 0
20 191 417 0
20 191 -170 0
20 -191 170 -417 0
20 192 -171 0
20 192 -193 0
20 -192 193 171 0
20 193 -85 0
20 193 -194 0
20 -193 194 85 0
20 194 -174 0
20 194 -195 0
20 -194 195 174 0
20 -195 196 0
20 -195 439 0
20 195 -439 -196 0
20 -196 -364 0
20 -196 197 0
20 196 -197 364 0
20 197 365 0
20 197 -327 0
20 -197 327 -365 0
20 198 -199 0
20 198 -203 0
20 -198 203 199 0
1 198 0
20 -199 200 0
20 -199 453 0
20 199 -453 -200 0
20 -200 -412 0
20 -200 201 0
20 200 -201 412 0
20 -201 102 0
20 -201 202 0
20 201 -202 -102 0
20 202 414 0
20 202 -192 0
20 -202 192 -414 0
20 203 -204 0
20 203 -208 0
20 -203 208 204 0
20 -204 205 0
20 -204 455 0
20 204 -455 -205 0
20 -205 -415 0
20 -205 206 0
20 205 -206 415 0
20 -206 76 0
20 -206 207 0
20 206 -207 -76 0
20 207 417 0
20 207 -192 0
20 -207 192 -417 0
20 208 -209 0
20 208 -213 0
20 -208 213 209 0
20 -209 210 0
20 -209 457 0
20 209 -457 -210 0
20 -210 -418 0
20 -210 211 0
20 210 -211 418 0
20 -211 81 0
20 -211 212 0
20 211 -212 -81 0
20 212 420 0
20 212 -192 0
20 -212 192 -420 0
20 -213 214 0
20 -213 458 0
20 213 -458 -214 0
20 -214 -409 0
20 -214 215 0
20 214 -215 409 0
20 -215 216 0
20 -215 217 0
20 215 -217 -216 0
20 216 410 0
20 216 -327 0
20 -216 327 -410 0
20 217 411 0
20 217 -192 0
20 -217 192 -411 0
20 218 -3 0
20 218 -219 0
20 -218 219 3 0
20 219 -7 0
20 219 -40 0
20 -219 40 7 0
20 220 -221 0
20 220 -222 0
20 -220 222 221 0
1 220 0
20 -221 230 0
20 -221 453 0
20 221 -453 -230 0
20 222 -223 0
20 222 -227 0
20 -222 227 223 0
20 -223 224 0
20 -223 455 0
20 223 -455 -224 0
20 -224 26 0
20 -224 225 0
20 224 -225 -26 0
20 -225 -419 0
20 -225 226 0
20 225 -226 419 0
20 226 420 0
20 226 -218 0
20 -226 218 -420 0
20 227 -228 0
20 227 -229 0
20 -227 229 228 0
20 -228 230 0
20 -228 457 0
20 228 -457 -230 0
20 -229 230 0
20 -229 458 0
20 229 -458 -230 0
20 -230 18 0
20 -230 231 0
20 230 -231 -18 0
20 -231 -416 0
20 -231 232 0
20 231 -232 416 0
20 232 417 0
20 232 -218 0
20 -232 218 -417 0
20 233 -38 0
20 233 -234 0
20 -233 234 38 0
20 -234 10 0
20 -234 434 0
20 234 -434 -10 0
20 235 -236 0
20 235 -240 0
20 -235 240 236 0
1 235 0
20 -236 237 0
20 -236 453 0
20 236 -453 -237 0
20 -237 26 0
20 -237 238 0
20 237 -238 -26 0
20 -238 -419 0
20 -238 239 0
20 238 -239 419 0
20 239 420 0
20 239 -233 0
20 -239 233 -420 0
20 240 -241 0
20 240 -242 0
20 -240 242 241 0
20 -241 245 0
20 -241 455 0
20 241 -455 -245 0
20 242 -243 0
20 242 -244 0
20 -242 244 243 0
20 -243 245 0
20 -243 457 0
20 243 -457 -245 0
20 -244 245 0
20 -244 458 0
20 244 -458 -245 0
20 -245 18 0
20 -245 246 0
20 245 -246 -18 0
20 -246 -416 0
20 -246 247 0
20 246 -247 416 0
20 247 417 0
20 247 -233 0
20 -247 233 -417 0
20 248 -120 0
20 248 -249 0
20 -248 249 120 0
20 249 -60 0
20 249 -173 0
20 -249 173 60 0
20 250 -251 0
20 250 -252 0
20 -250 252 251 0
1 250 0
20 -251 256 0
20 -251 453 0
20 251 -453 -256 0
20 252 -253 0
20 252 -254 0
20 -252 254 253 0
20 -253 256 0
20 -253 455 0
20 253 -455 -256 0
20 254 -255 0
20 254 -259 0
20 -254 259 255 0
20 -255 256 0
20 -255 457 0
20 255 -457 -256 0
20 -256 -418 0
20 -256 257 0
20 256 -257 418 0
20 -257 81 0
20 -257 258 0
20 257 -258 -81 0
20 258 420 0
20 258 -248 0
20 -258 248 -420 0
20 -259 260 0
20 -259 458 0
20 259 -458 -260 0
20 -260 -415 0
20 -260 261 0
20 260 -261 415 0
20 -261 76 0
20 -261 262 0
20 261 -262 -76 0
20 262 417 0
20 262 -248 0
20 -262 248 -417 0
20 263 -152 0
20 263 -234 0
20 -263 234 152 0
20 264 -265 0
20 264 -269 0
20 -264 269 265 0
1 264 0
20 -265 266 0
20 -265 453 0
20 265 -453 -266 0
20 -266 26 0
20 -266 267 0
20 266 -267 -26 0
20 -267 -419 0
20 -267 268 0
20 267 -268 419 0
20 268 420 0
20 268 -263 0
20 -268 263 -420 0
20 269 -270 0
20 269 -271 0
20 -269 271 270 0
20 -270 273 0
20 -270 455 0
20 270 -455 -273 0
20 271 -272 0
20 271 -276 0
20 -271 276 272 0
20 -272 273 0
20 -272 457 0
20 272 -457 -273 0
20 -273 18 0
20 -273 274 0
20 273 -274 -18 0
20 -274 -416 0
20 -274 275 0
20 274 -275 416 0
20 275 417 0
20 275 -263 0
20 -275 263 -417 0
20 -276 277 0
20 -276 458 0
20 276 -458 -277 0
20 -277 31 0
20 -277 278 0
20 277 -278 -31 0
20 -278 -410 0
20 -278 279 0
20 278 -279 410 0
20 279 411 0
20 279 -263 0
20 -279 263 -411 0
20 280 -58 0
20 280 -249 0
20 -280 249 58 0
20 281 -282 0
20 281 -283 0
20 -281 283 282 0
1 281 0
20 -282 291 0
20 -282 453 0
20 282 -453 -291 0
20 283 -284 0
20 283 -285 0
20 -283 285 284 0
20 -284 287 0
20 -284 455 0
20 284 -455 -287 0
20 285 -286 0
20 285 -290 0
20 -285 290 286 0
20 -286 287 0
20 -286 457 0
20 286 -457 -287 0
20 -287 -418 0
20 -287 288 0
20 287 -288 418 0
20 -288 81 0
20 -288 289 0
20 288 -289 -81 0
20 289 420 0
20 289 -280 0
20 -289 280 -420 0
20 -290 291 0
20 -290 458 0
20 290 -458 -291 0
20 -291 -415 0
20 -291 292 0
20 291 -292 415 0
20 -292 76 0
20 -292 293 0
20 292 -293 -76 0
20 293 417 0
20 293 -280 0
20 -293 280 -417 0
20 294 -58 0
20 294 -193 0
20 -294 193 58 0
20 295 -296 0
20 295 -297 0
20 -295 297 296 0
1 295 0
20 -296 299 0
20 -296 453 0
20 296 -453 -299 0
20 297 -298 0
20 297 -302 0
20 -297 302 298 0
20 -298 299 0
20 -298 455 0
20 298 -455 -299 0
20 -299 -415 0
20 -299 300 0
20 299 -300 415 0
20 -300 76 0
20 -300 301 0
20 300 -301 -76 0
20 301 417 0
20 301 -294 0
20 -301 294 -417 0
20 302 -303 0
20 302 -307 0
20 -302 307 303 0
20 -303 304 0
20 -303 457 0
20 303 -457 -304 0
20 -304 -418 0
20 -304 305 0
20 304 -305 418 0
20 -305 81 0
20 -305 306 0
20 305 -306 -81 0
20 306 420 0
20 306 -294 0
20 -306 294 -420 0
20 -307 308 0
20 -307 458 0
20 307 -458 -308 0
20 -308 -409 0
20 -308 309 0
20 308 -309 409 0
20 -309 216 0
20 -309 310 0
20 309 -310 -216 0
20 310 411 0
20 310 -294 0
20 -310 294 -411 0
20 311 -58 0
20 311 -172 0
20 -311 172 58 0
20 312 -313 0
20 312 -314 0
20 -312 314 313 0
1 312 0
20 -313 322 0
20 -313 453 0
20 313 -453 -322 0
20 314 -315 0
20 314 -316 0
20 -314 316 315 0
20 -315 322 0
20 -315 455 0
20 315 -455 -322 0
20 316 -317 0
20 316 -321 0
20 -316 321 317 0
20 -317 318 0
20 -317 457 0
20 317 -457 -318 0
20 -318 -418 0
20 -318 319 0
20 318 -319 418 0
20 -319 81 0
20 -319 320 0
20 319 -320 -81 0
20 320 420 0
20 320 -311 0
20 -320 311 -420 0
20 -321 322 0
20 -321 458 0
20 321 -458 -322 0
20 -322 -415 0
20 -322 323 0
20 322 -323 415 0
20 -323 76 0
20 -323 324 0
20 323 -324 -76 0
20 324 417 0
20 324 -311 0
20 -324 311 -417 0
20 -325 0
20 328 434 0
20 328 -329 0
20 -328 329 -434 0
20 328 0
20 -329 -364 0
20 -329 -365 0
20 329 365 364 0
20 330 436 0
20 330 -331 0
20 -330 331 -436 0
20 330 0
20 -331 -364 0
20 -331 332 0
20 331 -332 364 0
20 -332 -365 0
20 -332 333 0
20 332 -333 365 0
20 -333 -366 0
20 -333 -367 0
20 333 367 366 0
20 334 -331 0
20 334 438 0
20 -334 -438 331 0
20 334 0
20 335 453 0
20 335 -336 0
20 -335 336 -453 0
20 335 0
20 -336 -409 0
20 -336 337 0
20 336 -337 409 0
20 -337 -410 0
20 -337 -411 0
20 337 411 410 0
20 338 455 0
20 338 -339 0
20 -338 339 -455 0
20 338 0
20 -339 -409 0
20 -339 340 0
20 339 -340 409 0
20 -340 -410 0
20 -340 341 0
20 340 -341 410 0
20 -341 -411 0
20 -341 342 0
20 341 -342 411 0
20 -342 -412 0
20 -342 343 0
20 342 -343 412 0
20 -343 -413 0
20 -343 -414 0
20 343 414 413 0
20 344 -339 0
20 344 457 0
20 -344 -457 339 0
20 344 0
20 345 434 0
20 345 -346 0
20 -345 346 -434 0
20 345 0
20 -346 347 0
20 -346 350 0
20 346 -350 -347 0
20 347 -348 0
20 347 -349 0
20 -347 349 348 0
20 -348 -367 0
20 -348 366 0
20 348 -366 367 0
20 -349 -366 0
20 -349 367 0
20 349 -367 366 0
20 -350 351 0
20 -350 354 0
20 350 -354 -351 0
20 351 -352 0
20 351 -353 0
20 -351 353 352 0
20 -352 -369 0
20 -352 368 0
20 352 -368 369 0
20 -353 -368 0
20 -353 369 0
20 353 -369 368 0
20 354 -355 0
20 354 -356 0
20 -354 356 355 0
20 -355 -371 0
20 -355 370 0
20 355 -370 371 0
20 -356 -370 0
20 -356 371 0
20 356 -371 370 0
20 357 436 0
20 357 -350 0
20 -357 350 -436 0
20 357 0
20 358 438 0
20 358 -350 0
20 -358 350 -438 0
20 358 0
20 359 439 0
20 359 -360 0
20 -359 360 -439 0
20 359 0
20 -360 346 0
20 -360 361 0
20 360 -361 -346 0
20 361 -362 0
20 361 -363 0
20 -361 363 362 0
20 -362 -365 0
20 -362 364 0
20 362 -364 365 0
20 -363 -364 0
20 -363 365 0
20 363 -365 364 0
20 372 453 0
20 372 -373 0
20 -372 373 -453 0
20 372 0
20 -373 374 0
20 -373 381 0
20 373 -381 -374 0
20 374 -375 0
20 374 -379 0
20 -374 379 375 0
20 375 -376 0
20 375 -377 0
20 -375 377 376 0
20 -376 343 0
20 -376 412 0
20 376 -412 -343 0
20 -377 378 0
20 -377 413 0
20 377 -413 -378 0
20 -378 -412 0
20 -378 -414 0
20 378 414 412 0
20 -379 380 0
20 -379 414 0
20 379 -414 -380 0
20 -380 -412 0
20 -380 -413 0
20 380 413 412 0
20 -381 382 0
20 -381 390 0
20 381 -390 -382 0
20 382 -383 0
20 382 -388 0
20 -382 388 383 0
20 383 -384 0
20 383 -386 0
20 -383 386 384 0
20 -384 385 0
20 -384 415 0
20 384 -415 -385 0
20 -385 -416 0
20 -385 -417 0
20 385 417 416 0
20 -386 387 0
20 -386 416 0
20 386 -416 -387 0
20 -387 -415 0
20 -387 -417 0
20 387 417 415 0
20 -388 389 0
20 -388 417 0
20 388 -417 -389 0
20 -389 -415 0
20 -389 -416 0
20 389 416 415 0
20 390 -391 0
20 390 -396 0
20 -390 396 391 0
20 391 -392 0
20 391 -394 0
20 -391 394 392 0
20 -392 393 0
20 -392 418 0
20 392 -418 -393 0
20 -393 -419 0
20 -393 -420 0
20 393 420 419 0
20 -394 395 0
20 -394 419 0
20 394 -419 -395 0
20 -395 -418 0
20 -395 -420 0
20 395 420 418 0
20 -396 397 0
20 -396 420 0
20 396 -420 -397 0
20 -397 -418 0
20 -397 -419 0
20 397 419 418 0
20 398 455 0
20 398 -381 0
20 -398 381 -455 0
20 398 0
20 399 457 0
20 399 -381 0
20 -399 381 -457 0
20 399 0
20 400 458 0
20 400 -401 0
20 -400 401 -458 0
20 400 0
20 -401 373 0
20 -401 402 0
20 401 -402 -373 0
20 402 -403 0
20 402 -407 0
20 -402 407 403 0
20 403 -404 0
20 403 -405 0
20 -403 405 404 0
20 -404 337 0
20 -404 409 0
20 404 -409 -337 0
20 -405 406 0
20 -405 410 0
20 405 -410 -406 0
20 -406 -409 0
20 -406 -411 0
20 406 411 409 0
20 -407 408 0
20 -407 411 0
20 407 -411 -408 0
20 -408 -409 0
20 -408 -410 0
20 408 410 409 0
20 421 -422 0
20 421 -425 0
20 -421 425 422 0
20 421 0
20 -422 -436 0
20 -422 423 0
20 422 -423 436 0
20 -423 -438 0
20 -423 424 0
20 423 -424 438 0
20 -424 -439 0
20 -424 434 0
20 424 -434 439 0
20 425 -426 0
20 425 -429 0
20 -425 429 426 0
20 -426 -434 0
20 -426 427 0
20 426 -427 434 0
20 -427 -438 0
20 -427 428 0
20 427 -428 438 0
20 -428 -439 0
20 -428 436 0
20 428 -436 439 0
20 429 -430 0
20 429 -433 0
20 -429 433 430 0
20 -430 -434 0
20 -430 431 0
20 430 -431 434 0
20 -431 -436 0
20 -431 432 0
20 431 -432 436 0
20 -432 -439 0
20 -432 438 0
20 432 -438 439 0
20 -433 -434 0
20 -433 435 0
20 433 -435 434 0
20 -435 -436 0
20 -435 437 0
20 435 -437 436 0
20 -437 -438 0
20 -437 439 0
20 437 -439 438 0
20 440 -441 0
20 440 -444 0
20 -440 444 441 0
20 440 0
20 -441 -455 0
20 -441 442 0
20 441 -442 455 0
20 -442 -457 0
20 -442 443 0
20 442 -443 457 0
20 -443 -458 0
20 -443 453 0
20 443 -453 458 0
20 444 -445 0
20 444 -448 0
20 -444 448 445 0
20 -445 -453 0
20 -445 446 0
20 445 -446 453 0
20 -446 -457 0
20 -446 447 0
20 446 -447 457 0
20 -447 -458 0
20 -447 455 0
20 447 -455 458 0
20 448 -449 0
20 448 -452 0
20 -448 452 449 0
20 -449 -453 0
20 -449 450 0
20 449 -450 453 0
20 -450 -455 0
20 -450 451 0
20 450 -451 455 0
20 -451 -458 0
20 -451 457 0
20 451 -457 458 0
20 -452 -453 0
20 -452 454 0
20 452 -454 453 0
20 -454 -455 0
20 -454 456 0
20 454 -456 455 0
20 -456 -457 0
20 -456 458 0
20 456 -458 457 0
